     Program PWSCF v.7.1 starts on 23Feb2025 at 21:58:37

     Waiting for input...
     Reading input from standard input

     Current dimensions of program PWSCF are:
     Max number of different atomic species (ntypx) = 10
     Max number of k-points (npk) =  40000
     Max angular momentum in pseudopotentials (lmaxx) =  4
     file Se.pbe-dn-kjpaw_psl.1.0.0.UPF: wavefunction(s)  4S 4P 3D renormalized
     file Fe.pbe-spn-kjpaw_psl.1.0.0.UPF: wavefunction(s)  3P 3D renormalized
     Message from routine setup:
     using ibrav=0 with symmetry is DISCOURAGED, use correct ibrav instead

     Subspace diagonalization in iterative solution of the eigenvalue problem:
     a serial algorithm will be used

     Using Slab Decomposition

     bravais-lattice index     =            0
     lattice parameter (alat)  =       5.7523  a.u.
     unit-cell volume          =     190.3406 (a.u.)^3
     number of atoms/cell      =            2
     number of atomic types    =            2
     number of electrons       =        32.00 (up:  16.00, down:  16.00)
     number of Kohn-Sham states=           20
     kinetic-energy cutoff     =      60.0000  Ry
     charge density cutoff     =     240.0000  Ry
     scf convergence threshold =      1.0E-06
     mixing beta               =       0.7000
     number of iterations used =            8  plain     mixing
     Exchange-correlation= SLA  PW   PBX  PBC
                           (   1   4   3   4   0   0   0)
     Hubbard projectors: ortho-atomic
     Hubbard parameters of DFT+U (Dudarev formulation) in eV:
     U(Se-3d) =  8.0000

     Internal variables: lda_plus_u =T, lda_plus_u_kind = 0

     celldm(1)=   5.752330  celldm(2)=   0.000000  celldm(3)=   0.000000
     celldm(4)=   0.000000  celldm(5)=   0.000000  celldm(6)=   0.000000

     crystal axes: (cart. coord. in units of alat)
               a(1) = (   1.000000   0.000000   0.000000 )
               a(2) = (  -0.000000   1.000000   0.000000 )
               a(3) = (   0.000000   0.000000   1.000000 )

     reciprocal axes: (cart. coord. in units 2 pi/alat)
               b(1) = (  1.000000  0.000000 -0.000000 )
               b(2) = (  0.000000  1.000000  0.000000 )
               b(3) = (  0.000000 -0.000000  1.000000 )

     PseudoPot. # 1 for Se read from file:
     ./pseudo/Se.pbe-dn-kjpaw_psl.1.0.0.UPF
     MD5 check sum: ac240dd2bae32a30e0bf3a38df9c8785
     Pseudo is Projector augmented-wave + core cor, Zval = 16.0
     Generated using &quot;atomic&quot; code by A. Dal Corso  v.6.3
     Shape of augmentation charge: PSQ
     Using radial grid of 1211 points,  6 beta functions with:
                l(1) =   0
                l(2) =   0
                l(3) =   1
                l(4) =   1
                l(5) =   2
                l(6) =   2
     Q(r) pseudized with 0 coefficients

     PseudoPot. # 2 for Fe read from file:
     ./pseudo/Fe.pbe-spn-kjpaw_psl.1.0.0.UPF
     MD5 check sum: fc81f059e5c5069939230b1155715ae8
     Pseudo is Projector augmented-wave + core cor, Zval = 16.0
     Generated using &quot;atomic&quot; code by A. Dal Corso  v.6.3
     Shape of augmentation charge: PSQ
     Using radial grid of 1191 points,  6 beta functions with:
                l(1) =   0
                l(2) =   0
                l(3) =   1
                l(4) =   1
                l(5) =   2
                l(6) =   2
     Q(r) pseudized with 0 coefficients

     atomic species   valence    mass     pseudopotential
        Se            16.00    78.96000     Se( 1.00)
        Fe            16.00    55.84500     Fe( 1.00)

     Starting magnetic structure
     atomic species   magnetization
        Se           0.500
        Fe          -0.500

     48 Sym. Ops., with inversion, found

   Cartesian axes

     site n.     atom                  positions (alat units)
         1           Fe  tau(   1) = (   0.0000000   0.0000000   0.0000000  )
         2           Se  tau(   2) = (   0.5000000   0.5000000   0.5000000  )

     number of k points=    10 (tetrahedron method)
                       cart. coord. in units 2pi/alat
        k(    1) = (   0.0000000   0.0000000   0.0000000), wk =   0.0156250
        k(    2) = (   0.0000000   0.0000000   0.2500000), wk =   0.0937500
        k(    3) = (   0.0000000   0.0000000  -0.5000000), wk =   0.0468750
        k(    4) = (   0.0000000   0.2500000   0.2500000), wk =   0.1875000
        k(    5) = (   0.0000000   0.2500000  -0.5000000), wk =   0.1875000
        k(    6) = (   0.0000000  -0.5000000  -0.5000000), wk =   0.0468750
        k(    7) = (   0.2500000   0.2500000   0.2500000), wk =   0.1250000
        k(    8) = (   0.2500000   0.2500000  -0.5000000), wk =   0.1875000
        k(    9) = (   0.2500000  -0.5000000  -0.5000000), wk =   0.0937500
        k(   10) = (  -0.5000000  -0.5000000  -0.5000000), wk =   0.0156250

     Check: negative core charge=   -0.000008
     Generating pointlists ...
     new r_m :   0.3572 (alat units)  2.0549 (a.u.) for type    1
     new r_m :   0.3572 (alat units)  2.0549 (a.u.) for type    2

     Initial potential from superposition of free atoms

     starting charge      31.9995, renormalised to      32.0000

     STARTING HUBBARD OCCUPATIONS:

     =================== HUBBARD OCCUPATIONS ===================
     ------------------------ ATOM    2 ------------------------
     Tr[ns(  2)] (up, down, total) =   5.00000  5.00000 10.00000
     Atomic magnetic moment for atom   2 =   0.00000
     SPIN  1
     eigenvalues:
       1.000  1.000  1.000  1.000  1.000
     eigenvectors (columns):
       1.000  0.000  0.000  0.000  0.000
       0.000  1.000  0.000  0.000  0.000
       0.000  0.000  1.000  0.000  0.000
       0.000  0.000  0.000  1.000  0.000
       0.000  0.000  0.000  0.000  1.000
     occupation matrix ns (before diag.):
       1.000  0.000  0.000  0.000  0.000
       0.000  1.000  0.000  0.000  0.000
       0.000  0.000  1.000  0.000  0.000
       0.000  0.000  0.000  1.000  0.000
       0.000  0.000  0.000  0.000  1.000
     SPIN  2
     eigenvalues:
       1.000  1.000  1.000  1.000  1.000
     eigenvectors (columns):
       1.000  0.000  0.000  0.000  0.000
       0.000  1.000  0.000  0.000  0.000
       0.000  0.000  1.000  0.000  0.000
       0.000  0.000  0.000  1.000  0.000
       0.000  0.000  0.000  0.000  1.000
     occupation matrix ns (before diag.):
       1.000  0.000  0.000  0.000  0.000
       0.000  1.000  0.000  0.000  0.000
       0.000  0.000  1.000  0.000  0.000
       0.000  0.000  0.000  1.000  0.000
       0.000  0.000  0.000  0.000  1.000

     Number of occupied Hubbard levels =   10.0000

     Atomic wfc used for Hubbard projectors are orthogonalized

     Starting wfcs are   19 randomized atomic wfcs +    1 random wfcs
     Checking if some PAW data can be deallocated...

     Self-consistent Calculation

     iteration #  1     ecut=    60.00 Ry     beta= 0.70
     Davidson diagonalization with overlap
     ethr =  1.00E-02,  avg # of iterations =  4.3

[...]

     total energy              =    -730.31714776 Ry
     estimated scf accuracy    <       4.28683405 Ry

     total magnetization       =    -0.00 Bohr mag/cell
     absolute magnetization    =     3.87 Bohr mag/cell

[...]

     negative rho (up, down):  8.172E-06 0.000E+00

[...]

     total energy              =    -731.01042244 Ry
     estimated scf accuracy    <       0.00000161 Ry

[...]

     iteration # 10     ecut=    60.00 Ry     beta= 0.70
     Davidson diagonalization with overlap
     ethr =  5.04E-09,  avg # of iterations =  1.9

     Magnetic moment per site  (integrated on atomic sphere of radius R)
     atom   1 (R=0.357)  charge= 14.7160  magn=  0.0001
     atom   2 (R=0.357)  charge= 14.0629  magn=  0.0001

     End of self-consistent calculation

     =================== HUBBARD OCCUPATIONS ===================
     ------------------------ ATOM    2 ------------------------
     Tr[ns(  2)] (up, down, total) =   4.99997  4.99997  9.99993
     Atomic magnetic moment for atom   2 =  -0.00000
     SPIN  1
     eigenvalues:
       1.000  1.000  1.000  1.000  1.000
     eigenvectors (columns):
      -0.000 -0.000  0.000  0.095 -0.995
      -0.289 -0.910  0.297  0.000  0.000
      -0.615 -0.062 -0.786  0.000  0.000
       0.000  0.000 -0.000  0.995  0.095
       0.734 -0.410 -0.542 -0.000 -0.000
     occupation matrix ns (before diag.):
       1.000 -0.000 -0.000 -0.000  0.000
      -0.000  1.000 -0.000  0.000  0.000
      -0.000 -0.000  1.000  0.000  0.000
      -0.000  0.000  0.000  1.000 -0.000
       0.000  0.000  0.000 -0.000  1.000
     SPIN  2
     eigenvalues:
       1.000  1.000  1.000  1.000  1.000
     eigenvectors (columns):
      -0.000 -0.000  0.000 -0.677  0.736
      -0.275 -0.913  0.302 -0.000 -0.000
      -0.605 -0.080 -0.792 -0.000 -0.000
       0.000  0.000 -0.000 -0.736 -0.677
       0.747 -0.401 -0.531  0.000  0.000
     occupation matrix ns (before diag.):
       1.000 -0.000 -0.000 -0.000  0.000
      -0.000  1.000 -0.000  0.000  0.000
      -0.000 -0.000  1.000  0.000  0.000
      -0.000  0.000  0.000  1.000 -0.000
       0.000  0.000  0.000 -0.000  1.000

     Number of occupied Hubbard levels =    9.9999

 ------ SPIN UP ------------

          k = 0.0000 0.0000 0.0000 (  1503 PWs)   bands (ev):

   -70.4099 -36.8908 -36.8908 -36.8794 -36.8794 -36.8794 -36.5038 -36.5038
   -36.5038  -0.5207  13.8440  13.8440  14.8606  14.8606  14.8606  15.7587
    15.7587  15.7587  19.3314  23.7293

[...]

          k =-0.5000-0.5000-0.5000 (  1472 PWs)   bands (ev):

[...]

 ------ SPIN DOWN ----------

[...]

          k = 0.2500-0.5000-0.5000 (  1496 PWs)   bands (ev):

[...]

          k =-0.5000-0.5000-0.5000 (  1472 PWs)   bands (ev):

   -70.4030 -36.8983 -36.8983 -36.8983 -36.8747 -36.8747 -36.5137 -36.5137
   -36.5137   4.2512   9.8698   9.8698   9.8698  16.3876  16.3876  17.9830
    17.9830  17.9830  18.0263  18.0263

     the spin up/dw Fermi energies are    16.2980   16.2992 ev

!    total energy              =    -731.01042839 Ry
     total all-electron energy =     -7405.679934 Ry
     estimated scf accuracy    <       0.00000011 Ry

     The total energy is the sum of the following terms:
     one-electron contribution =    -285.88783899 Ry
     hartree contribution      =     158.74955808 Ry
     xc contribution           =     -56.25577580 Ry
     ewald contribution        =    -323.91874127 Ry
     Hubbard energy            =       0.00001998 Ry
     one-center paw contrib.   =    -223.69765038 Ry

     total magnetization       =    -0.00 Bohr mag/cell
     absolute magnetization    =     0.00 Bohr mag/cell

     convergence has been achieved in  10 iterations

     Writing all to output data dir ./work/calculation.save/

     General routines

     Parallel routines

     Hubbard U routines

   This run was terminated on:  21:58:47  23Feb2025

   JOB DONE.