     Program PWSCF v.7.1 starts on 30Dec2024 at 18:37:39

     Waiting for input...
     Reading input from standard input
Warning: card &CELL ignored
Warning: card / ignored

     Current dimensions of program PWSCF are:
     Max number of different atomic species (ntypx) = 10
     Max number of k-points (npk) =  40000
     Max angular momentum in pseudopotentials (lmaxx) =  4
     Message from routine iosys:
     BEWARE:  force calculation with tetrahedra (not recommanded)
     Message from routine iosys:
     BEWARE: stress calculation with tetrahedra (not recommanded)
     file Se.pbe-dn-kjpaw_psl.1.0.0.UPF: wavefunction(s)  4S 4P 3D renormalized
     file Fe.pbe-spn-kjpaw_psl.1.0.0.UPF: wavefunction(s)  3P 3D renormalized

     Subspace diagonalization in iterative solution of the eigenvalue problem:
     a serial algorithm will be used

     Using Slab Decomposition

     bravais-lattice index     =            0
     lattice parameter (alat)  =       6.3192  a.u.
     unit-cell volume          =     209.0995 (a.u.)^3
     number of atoms/cell      =            2
     number of atomic types    =            2
     number of electrons       =        32.00
     number of Kohn-Sham states=           20
     kinetic-energy cutoff     =      60.0000  Ry
     charge density cutoff     =     240.0000  Ry
     scf convergence threshold =      1.0E-05
     mixing beta               =       0.7000
     number of iterations used =            8  plain     mixing
     energy convergence thresh.=      0.0E+00
     force convergence thresh. =      0.0E+00
     Exchange-correlation= SLA  PW   PBX  PBC
                           (   1   4   3   4   0   0   0)
     nstep                     =           30

     celldm(1)=   6.319248  celldm(2)=   0.000000  celldm(3)=   0.000000
     celldm(4)=   0.000000  celldm(5)=   0.000000  celldm(6)=   0.000000

     crystal axes: (cart. coord. in units of alat)
               a(1) = (   1.000000   0.000000   0.000000 )
               a(2) = (  -0.000000   0.910287   0.000000 )
               a(3) = (   0.000000   0.000000   0.910287 )

     reciprocal axes: (cart. coord. in units 2 pi/alat)
               b(1) = (  1.000000  0.000000 -0.000000 )
               b(2) = (  0.000000  1.098554  0.000000 )
               b(3) = (  0.000000 -0.000000  1.098554 )

     PseudoPot. # 1 for Se read from file:
     ./pseudo/Se.pbe-dn-kjpaw_psl.1.0.0.UPF
     MD5 check sum: ac240dd2bae32a30e0bf3a38df9c8785
     Pseudo is Projector augmented-wave + core cor, Zval = 16.0
     Generated using &quot;atomic&quot; code by A. Dal Corso  v.6.3
     Shape of augmentation charge: PSQ
     Using radial grid of 1211 points,  6 beta functions with:
                l(1) =   0
                l(2) =   0
                l(3) =   1
                l(4) =   1
                l(5) =   2
                l(6) =   2
     Q(r) pseudized with 0 coefficients

     PseudoPot. # 2 for Fe read from file:
     ./pseudo/Fe.pbe-spn-kjpaw_psl.1.0.0.UPF
     MD5 check sum: fc81f059e5c5069939230b1155715ae8
     Pseudo is Projector augmented-wave + core cor, Zval = 16.0
     Generated using &quot;atomic&quot; code by A. Dal Corso  v.6.3
     Shape of augmentation charge: PSQ
     Using radial grid of 1191 points,  6 beta functions with:
                l(1) =   0
                l(2) =   0
                l(3) =   1
                l(4) =   1
                l(5) =   2
                l(6) =   2
     Q(r) pseudized with 0 coefficients

     atomic species   valence    mass     pseudopotential
        Se            16.00    78.96000     Se( 1.00)
        Fe            16.00    55.84500     Fe( 1.00)

     No symmetry found

   Cartesian axes

     site n.     atom                  positions (alat units)
         1           Fe  tau(   1) = (   0.0000000   0.0000000   0.0000000  )
         2           Se  tau(   2) = (   0.4551436   0.4551436   0.4551436  )

     number of k points=   260 (tetrahedron method)

     Number of k-points >= 100: set verbosity='high' to print them.

     Check: negative core charge=   -0.000007

     Initial potential from superposition of free atoms

     starting charge      31.9995, renormalised to      32.0000
     Starting wfcs are   19 randomized atomic wfcs +    1 random wfcs
     Checking if some PAW data can be deallocated...

     Self-consistent Calculation

     iteration #  1     ecut=    60.00 Ry     beta= 0.70
     Davidson diagonalization with overlap
     ethr =  1.00E-02,  avg # of iterations =  3.2

     total energy              =    -730.35275081 Ry
     estimated scf accuracy    <       0.83179814 Ry

[...]

     End of self-consistent calculation

     Number of k-points >= 100: set verbosity='high' to print the bands.

     the Fermi energy is    14.2913 ev

!    total energy              =    -730.99183683 Ry
     estimated scf accuracy    <       0.00000359 Ry

     convergence has been achieved in   8 iterations

     Forces acting on atoms (cartesian axes, Ry/au):

     atom    1 type  2   force =     0.02263906    0.00000962   -0.00010197
     atom    2 type  1   force =    -0.02263906   -0.00000962    0.00010197

     Total force =     0.032017     Total SCF correction =     0.000632

     Computing stress (Cartesian axis) and pressure

          total   stress  (Ry/bohr**3)                   (kbar)     P=     -155.99
  -0.00145004   0.00000071  -0.00000037         -213.31        0.10       -0.05
   0.00000071  -0.00086402  -0.00000167            0.10     -127.10       -0.25
  -0.00000037  -0.00000167  -0.00086704           -0.05       -0.25     -127.55

     Molecular Dynamics Calculation

     Starting temperature  =    10.00 K

     temperature is set once at start

     mass Se               =    78.96
     mass Fe               =    55.84
     Time step             =    20.00 a.u.,  0.9676 femto-seconds

     Entering Dynamics:    iteration =     1
                           time      =   0.0010 pico-seconds

ATOMIC_POSITIONS (angstrom)
Fe            0.0004890117        0.0001151143        0.0001904783
Se            1.5216551431        1.5219195846        1.5218662829

     kinetic energy (Ekin) =           0.00009500 Ry
     temperature           =          10.00000000 K
     Ekin + Etot (const)   =        -730.99174182 Ry
     Ions kinetic stress =            0.04 (kbar)
                                      0.11           0.03           0.05
                                      0.03           0.01           0.01
                                      0.05           0.01           0.02

     Linear momentum :    0.0000000000   -0.0000000000   -0.0000000000

     Writing config-only to output data dir ./work/try_6/calculation_try_6.save/
     NEW-OLD atomic charge density approx. for the potential

[...]

     Total force =     0.030496     Total SCF correction =     0.003317
     SCF correction compared to forces is large: reduce conv_thr to get better values

[...]

     Threshold (ethr) on eigenvalues was too large:
     Diagonalizing with lowered threshold

     Davidson diagonalization with overlap
     ethr =  1.85E-08,  avg # of iterations =  2.4

[...]

     Total force =     0.039769     Total SCF correction =     0.003000

[...]

     Writing config-only to output data dir ./work/try_6/calculation_try_6.save/
     NEW-OLD atomic charge density approx. for the potential

     Check: negative core charge=   -0.000007

     Self-consistent Calculation

[...]

     Threshold (ethr) on eigenvalues was too large:
     Diagonalizing with lowered threshold

     Davidson diagonalization with overlap
     ethr =  7.49E-08,  avg # of iterations =  1.3

[...]

     total energy              =    -730.99556070 Ry
     estimated scf accuracy    <       0.00047456 Ry

     iteration #  3     ecut=    60.00 Ry     beta= 0.70
     Davidson diagonalization with overlap
     ethr =  7.56E-08,  avg # of iterations =  4.0

     End of self-consistent calculation

     Number of k-points >= 100: set verbosity='high' to print the bands.

     the Fermi energy is    14.3048 ev

!    total energy              =    -730.99562327 Ry
     estimated scf accuracy    <       0.00000863 Ry

     convergence has been achieved in   3 iterations

     Forces acting on atoms (cartesian axes, Ry/au):

     atom    1 type  2   force =     0.02975119    0.00011703    0.00016756
     atom    2 type  1   force =    -0.02975119   -0.00011703   -0.00016756

     Total force =     0.042076     Total SCF correction =     0.006046
     SCF correction compared to forces is large: reduce conv_thr to get better values

     Computing stress (Cartesian axis) and pressure

          total   stress  (Ry/bohr**3)                   (kbar)     P=     -149.85
  -0.00129502   0.00000309   0.00000692         -190.50        0.46        1.02
   0.00000309  -0.00086271   0.00000544            0.46     -126.91        0.80
   0.00000692   0.00000544  -0.00089825            1.02        0.80     -132.14

     Entering Dynamics:    iteration =    30
                           time      =   0.0290 pico-seconds

ATOMIC_POSITIONS (angstrom)
Fe            0.0552135791        0.0033276333        0.0056008390
Se            1.4829508186        1.5196475086        1.5180397683

     kinetic energy (Ekin) =           0.00414992 Ry
     temperature           =         436.81329447 K
     Ekin + Etot (const)   =        -730.99147335 Ry
     Ions kinetic stress =            1.95 (kbar)
                                      5.81           0.20           0.33
                                      0.20           0.01           0.01
                                      0.33           0.01           0.02

     Linear momentum :   -0.0000000000    0.0000000000   -0.0000000000

     The maximum number of steps has been reached.

     End of molecular dynamics calculation

     diffusion coefficients :
     atom     1   D =       0.00000177 cm^2/s
     atom     2   D =       0.00000089 cm^2/s

     < D > =       0.00000133 cm^2/s

     Writing all to output data dir ./work/try_6/calculation_try_6.save/

     General routines

     Parallel routines

   This run was terminated on:  18:50:34  30Dec2024

   JOB DONE.