     Program PWSCF v.7.1 starts on 30Dec2024 at 17:43:22

     Waiting for input...
     Reading input from standard input
Warning: card &CELL ignored
Warning: card / ignored

     Current dimensions of program PWSCF are:
     Max number of different atomic species (ntypx) = 10
     Max number of k-points (npk) =  40000
     Max angular momentum in pseudopotentials (lmaxx) =  4
     Message from routine iosys:
     BEWARE:  force calculation with tetrahedra (not recommanded)
     Message from routine iosys:
     BEWARE: stress calculation with tetrahedra (not recommanded)
     file Se.pbe-dn-kjpaw_psl.1.0.0.UPF: wavefunction(s)  4S 4P 3D renormalized
     file Fe.pbe-spn-kjpaw_psl.1.0.0.UPF: wavefunction(s)  3P 3D renormalized

     Subspace diagonalization in iterative solution of the eigenvalue problem:
     a serial algorithm will be used

     Using Slab Decomposition

     bravais-lattice index     =            0
     lattice parameter (alat)  =       5.9413  a.u.
     unit-cell volume          =     196.5936 (a.u.)^3
     number of atoms/cell      =            2
     number of atomic types    =            2
     number of electrons       =        32.00
     number of Kohn-Sham states=           20
     kinetic-energy cutoff     =      60.0000  Ry
     charge density cutoff     =     240.0000  Ry
     scf convergence threshold =      1.0E-05
     mixing beta               =       0.7000
     number of iterations used =            8  plain     mixing
     energy convergence thresh.=      0.0E+00
     force convergence thresh. =      0.0E+00
     Exchange-correlation= SLA  PW   PBX  PBC
                           (   1   4   3   4   0   0   0)
     nstep                     =           30

     celldm(1)=   5.941303  celldm(2)=   0.000000  celldm(3)=   0.000000
     celldm(4)=   0.000000  celldm(5)=   0.000000  celldm(6)=   0.000000

     crystal axes: (cart. coord. in units of alat)
               a(1) = (   1.000000   0.000000   0.000000 )
               a(2) = (  -0.000000   0.968193   0.000000 )
               a(3) = (   0.000000   0.000000   0.968193 )

     reciprocal axes: (cart. coord. in units 2 pi/alat)
               b(1) = (  1.000000  0.000000 -0.000000 )
               b(2) = (  0.000000  1.032851  0.000000 )
               b(3) = (  0.000000 -0.000000  1.032851 )

     PseudoPot. # 1 for Se read from file:
     ./pseudo/Se.pbe-dn-kjpaw_psl.1.0.0.UPF
     MD5 check sum: ac240dd2bae32a30e0bf3a38df9c8785
     Pseudo is Projector augmented-wave + core cor, Zval = 16.0
     Generated using &quot;atomic&quot; code by A. Dal Corso  v.6.3
     Shape of augmentation charge: PSQ
     Using radial grid of 1211 points,  6 beta functions with:
                l(1) =   0
                l(2) =   0
                l(3) =   1
                l(4) =   1
                l(5) =   2
                l(6) =   2
     Q(r) pseudized with 0 coefficients

     PseudoPot. # 2 for Fe read from file:
     ./pseudo/Fe.pbe-spn-kjpaw_psl.1.0.0.UPF
     MD5 check sum: fc81f059e5c5069939230b1155715ae8
     Pseudo is Projector augmented-wave + core cor, Zval = 16.0
     Generated using &quot;atomic&quot; code by A. Dal Corso  v.6.3
     Shape of augmentation charge: PSQ
     Using radial grid of 1191 points,  6 beta functions with:
                l(1) =   0
                l(2) =   0
                l(3) =   1
                l(4) =   1
                l(5) =   2
                l(6) =   2
     Q(r) pseudized with 0 coefficients

     atomic species   valence    mass     pseudopotential
        Se            16.00    78.96000     Se( 1.00)
        Fe            16.00    55.84500     Fe( 1.00)

     No symmetry found

   Cartesian axes

     site n.     atom                  positions (alat units)
         1           Fe  tau(   1) = (   0.0000000   0.0000000   0.0000000  )
         2           Se  tau(   2) = (   0.4840967   0.4840967   0.4840967  )

     number of k points=   260 (tetrahedron method)

     Number of k-points >= 100: set verbosity='high' to print them.

     Check: negative core charge=   -0.000008

     Initial potential from superposition of free atoms

     starting charge      31.9995, renormalised to      32.0000
     Starting wfcs are   19 randomized atomic wfcs +    1 random wfcs
     Checking if some PAW data can be deallocated...

     Self-consistent Calculation

     iteration #  1     ecut=    60.00 Ry     beta= 0.70
     Davidson diagonalization with overlap
     ethr =  1.00E-02,  avg # of iterations =  3.2

     total energy              =    -730.41579625 Ry
     estimated scf accuracy    <       0.76265857 Ry

[...]

     End of self-consistent calculation

     Number of k-points >= 100: set verbosity='high' to print the bands.

     the Fermi energy is    15.5163 ev

!    total energy              =    -731.00251496 Ry
     estimated scf accuracy    <       0.00000013 Ry

     convergence has been achieved in   8 iterations

     Forces acting on atoms (cartesian axes, Ry/au):

     atom    1 type  2   force =     0.00584209   -0.00001020   -0.00007563
     atom    2 type  1   force =    -0.00584209    0.00001020    0.00007563

     Total force =     0.008263     Total SCF correction =     0.000899
     SCF correction compared to forces is large: reduce conv_thr to get better values

     Computing stress (Cartesian axis) and pressure

          total   stress  (Ry/bohr**3)                   (kbar)     P=      -98.88
  -0.00086225   0.00000271  -0.00000239         -126.84        0.40       -0.35
   0.00000271  -0.00057690   0.00000316            0.40      -84.86        0.47
  -0.00000239   0.00000316  -0.00057737           -0.35        0.47      -84.93

     Molecular Dynamics Calculation

     Starting temperature  =    10.00 K

     temperature is set once at start

     mass Se               =    78.96
     mass Fe               =    55.84
     Time step             =    20.00 a.u.,  0.9676 femto-seconds

     Entering Dynamics:    iteration =     1
                           time      =   0.0010 pico-seconds

ATOMIC_POSITIONS (angstrom)
Fe            0.0004540858        0.0001150731        0.0001905330
Se            1.5216798447        1.5219196138        1.5218662442

     kinetic energy (Ekin) =           0.00009500 Ry
     temperature           =          10.00000000 K
     Ekin + Etot (const)   =        -731.00241995 Ry
     Ions kinetic stress =            0.05 (kbar)
                                      0.11           0.03           0.05
                                      0.03           0.01           0.01
                                      0.05           0.01           0.02

     Linear momentum :    0.0000000000   -0.0000000000   -0.0000000000

     File ./work/try_2/calculation_try_2.msd.dat deleted, as requested

     Writing config-only to output data dir ./work/try_2/calculation_try_2.save/
     NEW-OLD atomic charge density approx. for the potential

[...]

     Threshold (ethr) on eigenvalues was too large:
     Diagonalizing with lowered threshold

     Davidson diagonalization with overlap
     ethr =  9.09E-09,  avg # of iterations =  3.7

[...]

     Total force =     0.006542     Total SCF correction =     0.000375

[...]

     Total force =     0.007475     Total SCF correction =     0.000529

[...]

     total energy              =    -731.00289368 Ry
     estimated scf accuracy    <       0.00001460 Ry

[...]

     Writing config-only to output data dir ./work/try_2/calculation_try_2.save/
     NEW-OLD atomic charge density approx. for the potential

     Check: negative core charge=   -0.000008

     Self-consistent Calculation

     iteration #  1     ecut=    60.00 Ry     beta= 0.70
     Davidson diagonalization with overlap
     ethr =  1.00E-06,  avg # of iterations =  5.0

     Threshold (ethr) on eigenvalues was too large:
     Diagonalizing with lowered threshold

     Davidson diagonalization with overlap
     ethr =  2.45E-08,  avg # of iterations =  2.0

     End of self-consistent calculation

     Number of k-points >= 100: set verbosity='high' to print the bands.

     the Fermi energy is    15.5127 ev

!    total energy              =    -731.00291123 Ry
     estimated scf accuracy    <       0.00000799 Ry

     convergence has been achieved in   1 iterations

     Forces acting on atoms (cartesian axes, Ry/au):

     atom    1 type  2   force =     0.00527185   -0.00007247    0.00002610
     atom    2 type  1   force =    -0.00527185    0.00007247   -0.00002610

     Total force =     0.007456     Total SCF correction =     0.002356
     SCF correction compared to forces is large: reduce conv_thr to get better values

     Computing stress (Cartesian axis) and pressure

          total   stress  (Ry/bohr**3)                   (kbar)     P=      -79.91
  -0.00071267   0.00000489   0.00000152         -104.84        0.72        0.22
   0.00000489  -0.00046327  -0.00000322            0.72      -68.15       -0.47
   0.00000152  -0.00000322  -0.00045376            0.22       -0.47      -66.75

     Entering Dynamics:    iteration =    30
                           time      =   0.0290 pico-seconds

ATOMIC_POSITIONS (angstrom)
Fe            0.0232110789        0.0033080101        0.0057382286
Se            1.5055848057        1.5196613872        1.5179425986

     kinetic energy (Ekin) =           0.00051577 Ry
     temperature           =          54.28923168 K
     Ekin + Etot (const)   =        -731.00239546 Ry
     Ions kinetic stress =            0.26 (kbar)
                                      0.74           0.07           0.13
                                      0.07           0.01           0.01
                                      0.13           0.01           0.02

     Linear momentum :    0.0000000000   -0.0000000000   -0.0000000000

     The maximum number of steps has been reached.

     End of molecular dynamics calculation

     diffusion coefficients :
     atom     1   D =       0.00000033 cm^2/s
     atom     2   D =       0.00000017 cm^2/s

     < D > =       0.00000025 cm^2/s

     Writing all to output data dir ./work/try_2/calculation_try_2.save/

     General routines

     Parallel routines

   This run was terminated on:  17:57: 7  30Dec2024

   JOB DONE.