     Program PWSCF v.7.1 starts on 30Dec2024 at 18:11:19

     Waiting for input...
     Reading input from standard input
Warning: card &CELL ignored
Warning: card / ignored

     Current dimensions of program PWSCF are:
     Max number of different atomic species (ntypx) = 10
     Max number of k-points (npk) =  40000
     Max angular momentum in pseudopotentials (lmaxx) =  4
     Message from routine iosys:
     BEWARE:  force calculation with tetrahedra (not recommanded)
     Message from routine iosys:
     BEWARE: stress calculation with tetrahedra (not recommanded)
     file Se.pbe-dn-kjpaw_psl.1.0.0.UPF: wavefunction(s)  4S 4P 3D renormalized
     file Fe.pbe-spn-kjpaw_psl.1.0.0.UPF: wavefunction(s)  3P 3D renormalized

     Subspace diagonalization in iterative solution of the eigenvalue problem:
     a serial algorithm will be used

     Using Slab Decomposition

     bravais-lattice index     =            0
     lattice parameter (alat)  =       6.1303  a.u.
     unit-cell volume          =     202.8465 (a.u.)^3
     number of atoms/cell      =            2
     number of atomic types    =            2
     number of electrons       =        32.00
     number of Kohn-Sham states=           20
     kinetic-energy cutoff     =      60.0000  Ry
     charge density cutoff     =     240.0000  Ry
     scf convergence threshold =      1.0E-05
     mixing beta               =       0.7000
     number of iterations used =            8  plain     mixing
     energy convergence thresh.=      0.0E+00
     force convergence thresh. =      0.0E+00
     Exchange-correlation= SLA  PW   PBX  PBC
                           (   1   4   3   4   0   0   0)
     nstep                     =           30

     celldm(1)=   6.130275  celldm(2)=   0.000000  celldm(3)=   0.000000
     celldm(4)=   0.000000  celldm(5)=   0.000000  celldm(6)=   0.000000

     crystal axes: (cart. coord. in units of alat)
               a(1) = (   1.000000   0.000000   0.000000 )
               a(2) = (  -0.000000   0.938348   0.000000 )
               a(3) = (   0.000000   0.000000   0.938348 )

     reciprocal axes: (cart. coord. in units 2 pi/alat)
               b(1) = (  1.000000  0.000000 -0.000000 )
               b(2) = (  0.000000  1.065703  0.000000 )
               b(3) = (  0.000000 -0.000000  1.065703 )

     PseudoPot. # 1 for Se read from file:
     ./pseudo/Se.pbe-dn-kjpaw_psl.1.0.0.UPF
     MD5 check sum: ac240dd2bae32a30e0bf3a38df9c8785
     Pseudo is Projector augmented-wave + core cor, Zval = 16.0
     Generated using &quot;atomic&quot; code by A. Dal Corso  v.6.3
     Shape of augmentation charge: PSQ
     Using radial grid of 1211 points,  6 beta functions with:
                l(1) =   0
                l(2) =   0
                l(3) =   1
                l(4) =   1
                l(5) =   2
                l(6) =   2
     Q(r) pseudized with 0 coefficients

     PseudoPot. # 2 for Fe read from file:
     ./pseudo/Fe.pbe-spn-kjpaw_psl.1.0.0.UPF
     MD5 check sum: fc81f059e5c5069939230b1155715ae8
     Pseudo is Projector augmented-wave + core cor, Zval = 16.0
     Generated using &quot;atomic&quot; code by A. Dal Corso  v.6.3
     Shape of augmentation charge: PSQ
     Using radial grid of 1191 points,  6 beta functions with:
                l(1) =   0
                l(2) =   0
                l(3) =   1
                l(4) =   1
                l(5) =   2
                l(6) =   2
     Q(r) pseudized with 0 coefficients

     atomic species   valence    mass     pseudopotential
        Se            16.00    78.96000     Se( 1.00)
        Fe            16.00    55.84500     Fe( 1.00)

     No symmetry found

   Cartesian axes

     site n.     atom                  positions (alat units)
         1           Fe  tau(   1) = (   0.0000000   0.0000000   0.0000000  )
         2           Se  tau(   2) = (   0.4691739   0.4691739   0.4691739  )

     number of k points=   260 (tetrahedron method)

     Number of k-points >= 100: set verbosity='high' to print them.

     Check: negative core charge=   -0.000007

     Initial potential from superposition of free atoms

     starting charge      31.9995, renormalised to      32.0000
     Starting wfcs are   19 randomized atomic wfcs +    1 random wfcs
     Checking if some PAW data can be deallocated...

     Self-consistent Calculation

     iteration #  1     ecut=    60.00 Ry     beta= 0.70
     Davidson diagonalization with overlap
     ethr =  1.00E-02,  avg # of iterations =  3.2

     total energy              =    -730.38471609 Ry
     estimated scf accuracy    <       0.79686565 Ry

[...]

     End of self-consistent calculation

     Number of k-points >= 100: set verbosity='high' to print the bands.

     the Fermi energy is    14.8863 ev

!    total energy              =    -730.99773990 Ry
     estimated scf accuracy    <       0.00000533 Ry

     convergence has been achieved in   8 iterations

     Forces acting on atoms (cartesian axes, Ry/au):

     atom    1 type  2   force =     0.01351984    0.00001506   -0.00011219
     atom    2 type  1   force =    -0.01351984   -0.00001506    0.00011219

     Total force =     0.019121     Total SCF correction =     0.000774

     Computing stress (Cartesian axis) and pressure

          total   stress  (Ry/bohr**3)                   (kbar)     P=     -137.45
  -0.00124401   0.00000098  -0.00000138         -183.00        0.14       -0.20
   0.00000098  -0.00077872   0.00000048            0.14     -114.55        0.07
  -0.00000138   0.00000048  -0.00078037           -0.20        0.07     -114.80

     Molecular Dynamics Calculation

     Starting temperature  =    10.00 K

     temperature is set once at start

     mass Se               =    78.96
     mass Fe               =    55.84
     Time step             =    20.00 a.u.,  0.9676 femto-seconds

     Entering Dynamics:    iteration =     1
                           time      =   0.0010 pico-seconds

ATOMIC_POSITIONS (angstrom)
Fe            0.0004700501        0.0001151256        0.0001904570
Se            1.5216685538        1.5219195766        1.5218662980

     kinetic energy (Ekin) =           0.00009500 Ry
     temperature           =          10.00000000 K
     Ekin + Etot (const)   =        -730.99764489 Ry
     Ions kinetic stress =            0.05 (kbar)
                                      0.11           0.03           0.05
                                      0.03           0.01           0.01
                                      0.05           0.01           0.02

     Linear momentum :   -0.0000000000   -0.0000000000    0.0000000000

     Writing config-only to output data dir ./work/try_4/calculation_try_4.save/
     NEW-OLD atomic charge density approx. for the potential

[...]

     Total force =     0.019183     Total SCF correction =     0.004052
     SCF correction compared to forces is large: reduce conv_thr to get better values

[...]

     Threshold (ethr) on eigenvalues was too large:
     Diagonalizing with lowered threshold

     Davidson diagonalization with overlap
     ethr =  6.33E-09,  avg # of iterations =  3.1

[...]

     iteration #  2     ecut=    60.00 Ry     beta= 0.70
     Davidson diagonalization with overlap
     c_bands:  1 eigenvalues not converged
     ethr =  1.09E-07,  avg # of iterations =  4.1

[...]

     Total force =     0.021795     Total SCF correction =     0.001869

[...]

     Writing config-only to output data dir ./work/try_4/calculation_try_4.save/
     NEW-OLD atomic charge density approx. for the potential

     Check: negative core charge=   -0.000007

     Self-consistent Calculation

[...]

     Threshold (ethr) on eigenvalues was too large:
     Diagonalizing with lowered threshold

     Davidson diagonalization with overlap
     ethr =  3.84E-08,  avg # of iterations =  2.1

[...]

     total energy              =    -730.99929834 Ry
     estimated scf accuracy    <       0.00021668 Ry

     iteration #  3     ecut=    60.00 Ry     beta= 0.70
     Davidson diagonalization with overlap
     ethr =  3.80E-08,  avg # of iterations =  3.9

     End of self-consistent calculation

     Number of k-points >= 100: set verbosity='high' to print the bands.

     the Fermi energy is    14.8829 ev

!    total energy              =    -730.99931494 Ry
     estimated scf accuracy    <       0.00000724 Ry

     convergence has been achieved in   3 iterations

     Forces acting on atoms (cartesian axes, Ry/au):

     atom    1 type  2   force =     0.01823304    0.00016634    0.00035723
     atom    2 type  1   force =    -0.01823304   -0.00016634   -0.00035723

     Total force =     0.025791     Total SCF correction =     0.002979
     SCF correction compared to forces is large: reduce conv_thr to get better values

     Computing stress (Cartesian axis) and pressure

          total   stress  (Ry/bohr**3)                   (kbar)     P=     -113.55
  -0.00101902   0.00000217   0.00000514         -149.90        0.32        0.76
   0.00000217  -0.00063171  -0.00000522            0.32      -92.93       -0.77
   0.00000514  -0.00000522  -0.00066497            0.76       -0.77      -97.82

     Entering Dynamics:    iteration =    30
                           time      =   0.0290 pico-seconds

ATOMIC_POSITIONS (angstrom)
Fe            0.0385208594        0.0033540367        0.0057787229
Se            1.4947568588        1.5196288346        1.5179139587

     kinetic energy (Ekin) =           0.00182842 Ry
     temperature           =         192.45658122 K
     Ekin + Etot (const)   =        -730.99748651 Ry
     Ions kinetic stress =            0.88 (kbar)
                                      2.62           0.14           0.25
                                      0.14           0.01           0.01
                                      0.25           0.01           0.02

     Linear momentum :   -0.0000000000   -0.0000000000   -0.0000000000

     The maximum number of steps has been reached.

     End of molecular dynamics calculation

     diffusion coefficients :
     atom     1   D =       0.00000088 cm^2/s
     atom     2   D =       0.00000044 cm^2/s

     < D > =       0.00000066 cm^2/s

     Writing all to output data dir ./work/try_4/calculation_try_4.save/

     General routines

     Parallel routines

   This run was terminated on:  18:24:41  30Dec2024

   JOB DONE.