     Program PWSCF v.7.1 starts on 30Dec2024 at 17:16: 7

     Waiting for input...
     Reading input from standard input
Warning: card &CELL ignored
Warning: card / ignored

     Current dimensions of program PWSCF are:
     Max number of different atomic species (ntypx) = 10
     Max number of k-points (npk) =  40000
     Max angular momentum in pseudopotentials (lmaxx) =  4
     Message from routine iosys:
     BEWARE:  force calculation with tetrahedra (not recommanded)
     Message from routine iosys:
     BEWARE: stress calculation with tetrahedra (not recommanded)
     file Se.pbe-dn-kjpaw_psl.1.0.0.UPF: wavefunction(s)  4S 4P 3D renormalized
     file Fe.pbe-spn-kjpaw_psl.1.0.0.UPF: wavefunction(s)  3P 3D renormalized

     Subspace diagonalization in iterative solution of the eigenvalue problem:
     a serial algorithm will be used

     Using Slab Decomposition

     bravais-lattice index     =            0
     lattice parameter (alat)  =       5.7523  a.u.
     unit-cell volume          =     190.3406 (a.u.)^3
     number of atoms/cell      =            2
     number of atomic types    =            2
     number of electrons       =        32.00
     number of Kohn-Sham states=           20
     kinetic-energy cutoff     =      60.0000  Ry
     charge density cutoff     =     240.0000  Ry
     scf convergence threshold =      1.0E-05
     mixing beta               =       0.7000
     number of iterations used =            8  plain     mixing
     energy convergence thresh.=      0.0E+00
     force convergence thresh. =      0.0E+00
     Exchange-correlation= SLA  PW   PBX  PBC
                           (   1   4   3   4   0   0   0)
     nstep                     =           30

     celldm(1)=   5.752330  celldm(2)=   0.000000  celldm(3)=   0.000000
     celldm(4)=   0.000000  celldm(5)=   0.000000  celldm(6)=   0.000000

     crystal axes: (cart. coord. in units of alat)
               a(1) = (   1.000000   0.000000   0.000000 )
               a(2) = (  -0.000000   1.000000   0.000000 )
               a(3) = (   0.000000   0.000000   1.000000 )

     reciprocal axes: (cart. coord. in units 2 pi/alat)
               b(1) = (  1.000000  0.000000 -0.000000 )
               b(2) = (  0.000000  1.000000  0.000000 )
               b(3) = (  0.000000 -0.000000  1.000000 )

     PseudoPot. # 1 for Se read from file:
     ./pseudo/Se.pbe-dn-kjpaw_psl.1.0.0.UPF
     MD5 check sum: ac240dd2bae32a30e0bf3a38df9c8785
     Pseudo is Projector augmented-wave + core cor, Zval = 16.0
     Generated using &quot;atomic&quot; code by A. Dal Corso  v.6.3
     Shape of augmentation charge: PSQ
     Using radial grid of 1211 points,  6 beta functions with:
                l(1) =   0
                l(2) =   0
                l(3) =   1
                l(4) =   1
                l(5) =   2
                l(6) =   2
     Q(r) pseudized with 0 coefficients

     PseudoPot. # 2 for Fe read from file:
     ./pseudo/Fe.pbe-spn-kjpaw_psl.1.0.0.UPF
     MD5 check sum: fc81f059e5c5069939230b1155715ae8
     Pseudo is Projector augmented-wave + core cor, Zval = 16.0
     Generated using &quot;atomic&quot; code by A. Dal Corso  v.6.3
     Shape of augmentation charge: PSQ
     Using radial grid of 1191 points,  6 beta functions with:
                l(1) =   0
                l(2) =   0
                l(3) =   1
                l(4) =   1
                l(5) =   2
                l(6) =   2
     Q(r) pseudized with 0 coefficients

     atomic species   valence    mass     pseudopotential
        Se            16.00    78.96000     Se( 1.00)
        Fe            16.00    55.84500     Fe( 1.00)

     No symmetry found

   Cartesian axes

     site n.     atom                  positions (alat units)
         1           Fe  tau(   1) = (   0.0000000   0.0000000   0.0000000  )
         2           Se  tau(   2) = (   0.5000000   0.5000000   0.5000000  )

     number of k points=   260 (tetrahedron method)

     Number of k-points >= 100: set verbosity='high' to print them.

     Check: negative core charge=   -0.000008

     Initial potential from superposition of free atoms

     starting charge      31.9995, renormalised to      32.0000
     Starting wfcs are   19 randomized atomic wfcs +    1 random wfcs
     Checking if some PAW data can be deallocated...

     Self-consistent Calculation

     iteration #  1     ecut=    60.00 Ry     beta= 0.70
     Davidson diagonalization with overlap
     ethr =  1.00E-02,  avg # of iterations =  3.3

     total energy              =    -730.43109547 Ry
     estimated scf accuracy    <       0.74636305 Ry

[...]

     End of self-consistent calculation

     Number of k-points >= 100: set verbosity='high' to print the bands.

     the Fermi energy is    16.1839 ev

!    total energy              =    -731.00558266 Ry
     estimated scf accuracy    <       0.00000083 Ry

     convergence has been achieved in   8 iterations

     Forces acting on atoms (cartesian axes, Ry/au):

     atom    1 type  2   force =     0.00036983    0.00004135   -0.00010416
     atom    2 type  1   force =    -0.00036983   -0.00004135    0.00010416

     Total force =     0.000547     Total SCF correction =     0.000723
     SCF correction compared to forces is large: reduce conv_thr to get better values

     Computing stress (Cartesian axis) and pressure

          total   stress  (Ry/bohr**3)                   (kbar)     P=      -58.48
  -0.00040579   0.00000718  -0.00000578          -59.69        1.06       -0.85
   0.00000718  -0.00039435  -0.00000023            1.06      -58.01       -0.03
  -0.00000578  -0.00000023  -0.00039241           -0.85       -0.03      -57.73

     Molecular Dynamics Calculation

     Starting temperature  =    10.00 K

     temperature is set once at start

     mass Se               =    78.96
     mass Fe               =    55.84
     Time step             =    20.00 a.u.,  0.9676 femto-seconds

     Entering Dynamics:    iteration =     1
                           time      =   0.0010 pico-seconds

ATOMIC_POSITIONS (angstrom)
Fe            0.0004427074        0.0001151802        0.0001904737
Se            1.5216878922        1.5219195380        1.5218662862

     kinetic energy (Ekin) =           0.00009500 Ry
     temperature           =          10.00000000 K
     Ekin + Etot (const)   =        -731.00548766 Ry
     Ions kinetic stress =            0.05 (kbar)
                                      0.12           0.03           0.05
                                      0.03           0.01           0.01
                                      0.05           0.01           0.02

     Linear momentum :   -0.0000000000    0.0000000000    0.0000000000

     File ./work/try_0/calculation_try_0.msd.dat deleted, as requested

     Writing config-only to output data dir ./work/try_0/calculation_try_0.save/
     NEW-OLD atomic charge density approx. for the potential

[...]

     Threshold (ethr) on eigenvalues was too large:
     Diagonalizing with lowered threshold

     Davidson diagonalization with overlap
     ethr =  2.24E-08,  avg # of iterations =  2.2

[...]

     Threshold (ethr) on eigenvalues was too large:
     Diagonalizing with lowered threshold

     Davidson diagonalization with overlap
     ethr =  1.21E-08,  avg # of iterations =  3.1

[...]

     Writing config-only to output data dir ./work/try_0/calculation_try_0.save/
     NEW-OLD atomic charge density approx. for the potential

     Check: negative core charge=   -0.000008

     Self-consistent Calculation

[...]

     total energy              =    -731.00561404 Ry
     estimated scf accuracy    <       0.00001333 Ry

     iteration #  4     ecut=    60.00 Ry     beta= 0.70
     Davidson diagonalization with overlap
     ethr =  4.17E-08,  avg # of iterations =  1.1

     End of self-consistent calculation

     Number of k-points >= 100: set verbosity='high' to print the bands.

     the Fermi energy is    16.1840 ev

!    total energy              =    -731.00561812 Ry
     estimated scf accuracy    <       0.00000078 Ry

     convergence has been achieved in   4 iterations

     Forces acting on atoms (cartesian axes, Ry/au):

     atom    1 type  2   force =     0.00146156    0.00029592    0.00059343
     atom    2 type  1   force =    -0.00146156   -0.00029592   -0.00059343

     Total force =     0.002270     Total SCF correction =     0.001534
     SCF correction compared to forces is large: reduce conv_thr to get better values

     Computing stress (Cartesian axis) and pressure

          total   stress  (Ry/bohr**3)                   (kbar)     P=      -59.64
  -0.00040985   0.00000375  -0.00000201          -60.29        0.55       -0.30
   0.00000375  -0.00041023   0.00000450            0.55      -60.35        0.66
  -0.00000201   0.00000450  -0.00039612           -0.30        0.66      -58.27

     Entering Dynamics:    iteration =    30
                           time      =   0.0290 pico-seconds

ATOMIC_POSITIONS (angstrom)
Fe            0.0134809831        0.0034515849        0.0057785519
Se            1.5124664825        1.5195598429        1.5179140796

     kinetic energy (Ekin) =           0.00011534 Ry
     temperature           =          12.14076994 K
     Ekin + Etot (const)   =        -731.00550278 Ry
     Ions kinetic stress =            0.06 (kbar)
                                      0.14           0.04           0.06
                                      0.04           0.01           0.02
                                      0.06           0.02           0.03

     Linear momentum :    0.0000000000   -0.0000000000   -0.0000000000

     The maximum number of steps has been reached.

     End of molecular dynamics calculation

     diffusion coefficients :
     atom     1   D =       0.00000013 cm^2/s
     atom     2   D =       0.00000007 cm^2/s

     < D > =       0.00000010 cm^2/s

     Writing all to output data dir ./work/try_0/calculation_try_0.save/

     General routines

     Parallel routines

   This run was terminated on:  17:30:19  30Dec2024

   JOB DONE.