     Program PWSCF v.7.1 starts on 30Dec2024 at 18:50:34

     Waiting for input...
     Reading input from standard input
Warning: card &CELL ignored
Warning: card / ignored

     Current dimensions of program PWSCF are:
     Max number of different atomic species (ntypx) = 10
     Max number of k-points (npk) =  40000
     Max angular momentum in pseudopotentials (lmaxx) =  4
     Message from routine iosys:
     BEWARE:  force calculation with tetrahedra (not recommanded)
     Message from routine iosys:
     BEWARE: stress calculation with tetrahedra (not recommanded)
     file Se.pbe-dn-kjpaw_psl.1.0.0.UPF: wavefunction(s)  4S 4P 3D renormalized
     file Fe.pbe-spn-kjpaw_psl.1.0.0.UPF: wavefunction(s)  3P 3D renormalized

     Subspace diagonalization in iterative solution of the eigenvalue problem:
     a serial algorithm will be used

     Using Slab Decomposition

     bravais-lattice index     =            0
     lattice parameter (alat)  =       6.4137  a.u.
     unit-cell volume          =     212.2260 (a.u.)^3
     number of atoms/cell      =            2
     number of atomic types    =            2
     number of electrons       =        32.00
     number of Kohn-Sham states=           20
     kinetic-energy cutoff     =      60.0000  Ry
     charge density cutoff     =     240.0000  Ry
     scf convergence threshold =      1.0E-05
     mixing beta               =       0.7000
     number of iterations used =            8  plain     mixing
     energy convergence thresh.=      0.0E+00
     force convergence thresh. =      0.0E+00
     Exchange-correlation= SLA  PW   PBX  PBC
                           (   1   4   3   4   0   0   0)
     nstep                     =           30

     celldm(1)=   6.413734  celldm(2)=   0.000000  celldm(3)=   0.000000
     celldm(4)=   0.000000  celldm(5)=   0.000000  celldm(6)=   0.000000

     crystal axes: (cart. coord. in units of alat)
               a(1) = (   1.000000   0.000000   0.000000 )
               a(2) = (  -0.000000   0.896877   0.000000 )
               a(3) = (   0.000000   0.000000   0.896877 )

     reciprocal axes: (cart. coord. in units 2 pi/alat)
               b(1) = (  1.000000  0.000000 -0.000000 )
               b(2) = (  0.000000  1.114980  0.000000 )
               b(3) = (  0.000000 -0.000000  1.114980 )

     PseudoPot. # 1 for Se read from file:
     ./pseudo/Se.pbe-dn-kjpaw_psl.1.0.0.UPF
     MD5 check sum: ac240dd2bae32a30e0bf3a38df9c8785
     Pseudo is Projector augmented-wave + core cor, Zval = 16.0
     Generated using &quot;atomic&quot; code by A. Dal Corso  v.6.3
     Shape of augmentation charge: PSQ
     Using radial grid of 1211 points,  6 beta functions with:
                l(1) =   0
                l(2) =   0
                l(3) =   1
                l(4) =   1
                l(5) =   2
                l(6) =   2
     Q(r) pseudized with 0 coefficients

     PseudoPot. # 2 for Fe read from file:
     ./pseudo/Fe.pbe-spn-kjpaw_psl.1.0.0.UPF
     MD5 check sum: fc81f059e5c5069939230b1155715ae8
     Pseudo is Projector augmented-wave + core cor, Zval = 16.0
     Generated using &quot;atomic&quot; code by A. Dal Corso  v.6.3
     Shape of augmentation charge: PSQ
     Using radial grid of 1191 points,  6 beta functions with:
                l(1) =   0
                l(2) =   0
                l(3) =   1
                l(4) =   1
                l(5) =   2
                l(6) =   2
     Q(r) pseudized with 0 coefficients

     atomic species   valence    mass     pseudopotential
        Se            16.00    78.96000     Se( 1.00)
        Fe            16.00    55.84500     Fe( 1.00)

     No symmetry found

   Cartesian axes

     site n.     atom                  positions (alat units)
         1           Fe  tau(   1) = (   0.0000000   0.0000000   0.0000000  )
         2           Se  tau(   2) = (   0.4484385   0.4484385   0.4484385  )

     number of k points=   260 (tetrahedron method)

     Number of k-points >= 100: set verbosity='high' to print them.

     Check: negative core charge=   -0.000007

     Initial potential from superposition of free atoms

     starting charge      31.9995, renormalised to      32.0000
     Starting wfcs are   19 randomized atomic wfcs +    1 random wfcs
     Checking if some PAW data can be deallocated...

     Self-consistent Calculation

     iteration #  1     ecut=    60.00 Ry     beta= 0.70
     Davidson diagonalization with overlap
     ethr =  1.00E-02,  avg # of iterations =  3.2

     total energy              =    -730.33075459 Ry
     estimated scf accuracy    <       0.85606706 Ry

[...]

     End of self-consistent calculation

     Number of k-points >= 100: set verbosity='high' to print the bands.

     the Fermi energy is    14.0109 ev

!    total energy              =    -730.98876074 Ry
     estimated scf accuracy    <       0.00000173 Ry

     convergence has been achieved in   8 iterations

     Forces acting on atoms (cartesian axes, Ry/au):

     atom    1 type  2   force =     0.02777556    0.00004314   -0.00012953
     atom    2 type  1   force =    -0.02777556   -0.00004314    0.00012953

     Total force =     0.039281     Total SCF correction =     0.000658

     Computing stress (Cartesian axis) and pressure

          total   stress  (Ry/bohr**3)                   (kbar)     P=     -162.84
  -0.00152688  -0.00000161   0.00000149         -224.61       -0.24        0.22
  -0.00000161  -0.00089651  -0.00000283           -0.24     -131.88       -0.42
   0.00000149  -0.00000283  -0.00089754            0.22       -0.42     -132.03

     Molecular Dynamics Calculation

     Starting temperature  =    10.00 K

     temperature is set once at start

     mass Se               =    78.96
     mass Fe               =    55.84
     Time step             =    20.00 a.u.,  0.9676 femto-seconds

     Entering Dynamics:    iteration =     1
                           time      =   0.0010 pico-seconds

ATOMIC_POSITIONS (angstrom)
Fe            0.0004996920        0.0001151840        0.0001904210
Se            1.5216475894        1.5219195353        1.5218663235

     kinetic energy (Ekin) =           0.00009500 Ry
     temperature           =          10.00000000 K
     Ekin + Etot (const)   =        -730.98866574 Ry
     Ions kinetic stress =            0.04 (kbar)
                                      0.11           0.03           0.05
                                      0.03           0.01           0.01
                                      0.05           0.01           0.02

     Linear momentum :    0.0000000000   -0.0000000000    0.0000000000

     Writing config-only to output data dir ./work/try_7/calculation_try_7.save/
     NEW-OLD atomic charge density approx. for the potential

[...]

     Threshold (ethr) on eigenvalues was too large:
     Diagonalizing with lowered threshold

     Davidson diagonalization with overlap
     ethr =  7.48E-09,  avg # of iterations =  3.4

[...]

     Total force =     0.036247     Total SCF correction =     0.003897
     SCF correction compared to forces is large: reduce conv_thr to get better values

[...]

     Threshold (ethr) on eigenvalues was too large:
     Diagonalizing with lowered threshold

     Davidson diagonalization with overlap
     ethr =  6.58E-08,  avg # of iterations =  1.5

[...]

     Total force =     0.047874     Total SCF correction =     0.004500

[...]

     Writing config-only to output data dir ./work/try_7/calculation_try_7.save/
     NEW-OLD atomic charge density approx. for the potential

     Check: negative core charge=   -0.000007

     Self-consistent Calculation

[...]

     total energy              =    -730.99308823 Ry
     estimated scf accuracy    <       0.01127989 Ry

     iteration #  3     ecut=    60.00 Ry     beta= 0.70
     Davidson diagonalization with overlap
     ethr =  1.08E-06,  avg # of iterations =  4.0

     End of self-consistent calculation

     Number of k-points >= 100: set verbosity='high' to print the bands.

     the Fermi energy is    14.0156 ev

!    total energy              =    -730.99408666 Ry
     estimated scf accuracy    <       0.00000227 Ry

     convergence has been achieved in   3 iterations

     Forces acting on atoms (cartesian axes, Ry/au):

     atom    1 type  2   force =     0.03430953    0.00003939    0.00002352
     atom    2 type  1   force =    -0.03430953   -0.00003939   -0.00002352

     Total force =     0.048521     Total SCF correction =     0.006100
     SCF correction compared to forces is large: reduce conv_thr to get better values

     Computing stress (Cartesian axis) and pressure

          total   stress  (Ry/bohr**3)                   (kbar)     P=     -153.27
  -0.00132038   0.00000556   0.00000906         -194.23        0.82        1.33
   0.00000556  -0.00089312  -0.00000007            0.82     -131.38       -0.01
   0.00000906  -0.00000007  -0.00091227            1.33       -0.01     -134.20

     Entering Dynamics:    iteration =    30
                           time      =   0.0290 pico-seconds

ATOMIC_POSITIONS (angstrom)
Fe            0.0646326492        0.0033595490        0.0055333635
Se            1.4762891168        1.5196249360        1.5180874908

     kinetic energy (Ekin) =           0.00582527 Ry
     temperature           =         613.15782797 K
     Ekin + Etot (const)   =        -730.98826140 Ry
     Ions kinetic stress =            2.69 (kbar)
                                      8.05           0.23           0.38
                                      0.23           0.01           0.01
                                      0.38           0.01           0.02

     Linear momentum :    0.0000000000    0.0000000000    0.0000000000

     The maximum number of steps has been reached.

     End of molecular dynamics calculation

     diffusion coefficients :
     atom     1   D =       0.00000242 cm^2/s
     atom     2   D =       0.00000121 cm^2/s

     < D > =       0.00000182 cm^2/s

     Writing all to output data dir ./work/try_7/calculation_try_7.save/

     General routines

     Parallel routines

   This run was terminated on:  19: 3:41  30Dec2024

   JOB DONE.